0
0
1
2
3
4
5
6
7
8
9
10
11
12
13
14
15
16
17
18
19
20
21
22
23
24
25
26
27
28
29
30
31
32
33
34
35
36
37
38
39
40
40
40
39
39
38
38
37
37
36
36
35
35
34
34
33
33
32
32
31
31
30
30
29
29
28
28
27
27
26
26
25
25
24
24
23
23
22
22
21
21
20
20
19
19
18
18
17
17
16
16
15
15
14
14
13
13
12
12
11
11
11
13
12
14
10
15
10
18
17
16
10
19
20
9
9
9
8
8
21
8
22
7
23
7
7
7
24
6
27
28
26
29
25
9
8
6
6
6
6
5
5
5
30
31
32
5
5
4
4
33
4
4
34
10
35
5
4
39
36
4
37
38
4
3
3
3
3
3
3
40
3
3
3
2
2
2
2
2
3
2
7
2
2
2
8
4
2
2
2
25
16
22
17
34
31
36
30
40
